(set-logic QF_BV)

(declare-const __ESBMC_ptr_obj_start_0 (_ BitVec 64))

(declare-const __ESBMC_ptr_obj_end_0 (_ BitVec 64))

(declare-const __ESBMC_ptr_obj_start_1 (_ BitVec 64))

(declare-const __ESBMC_ptr_obj_end_1 (_ BitVec 64))

(declare-const |smt_conv::__ESBMC_ptr_addr_range_0..start0| (_ BitVec 64))

(declare-const |smt_conv::__ESBMC_ptr_addr_range_0..end0| (_ BitVec 64))

(declare-const |smt_conv::__ESBMC_ptr_addr_range_1..start0| (_ BitVec 64))

(declare-const |smt_conv::__ESBMC_ptr_addr_range_1..end0| (_ BitVec 64))

(declare-const |smt_conv::smt_conv::collate_array_vals::3..start0| (_ BitVec 64))

(declare-const |smt_conv::smt_conv::collate_array_vals::3..end0| (_ BitVec 64))

(declare-const |smt_conv::smt_conv::collate_array_vals::4..start0| (_ BitVec 64))

(declare-const |smt_conv::smt_conv::collate_array_vals::4..end0| (_ BitVec 64))

(declare-const |smt_conv::smt_conv::collate_array_vals::7..start0| (_ BitVec 64))

(declare-const |smt_conv::smt_conv::collate_array_vals::7..end0| (_ BitVec 64))

(declare-const |c:@F@main::$tmp::return_value$___VERIFIER_nondet_uint$1?1!0&0#1| (_ BitVec 32))

(declare-const |nondet$symex::nondet148| (_ BitVec 32))

(declare-const |c:jain_2-1.c@730@F@main@x?1!0&0#2| (_ BitVec 32))

(declare-const |c:@F@main::$tmp::return_value$___VERIFIER_nondet_uint$2?1!0&0#1| (_ BitVec 32))

(declare-const |nondet$symex::nondet149| (_ BitVec 32))

(declare-const |c:jain_2-1.c@730@F@main@y?1!0&0#2| (_ BitVec 32))

(declare-const |c:jain_2-1.c@634@F@__VERIFIER_assert@cond?1!0&0#1| (_ BitVec 32))

(declare-const |goto_symex::guard?0!0&0#1| (_ BitVec 1))

(declare-const |c:@F@main::$tmp::return_value$___VERIFIER_nondet_uint$1?2!0&0#1| (_ BitVec 32))

(declare-const |nondet$symex::nondet150| (_ BitVec 32))

(declare-const |c:jain_2-1.c@730@F@main@x?1!0&0#3| (_ BitVec 32))

(declare-const |c:@F@main::$tmp::return_value$___VERIFIER_nondet_uint$2?2!0&0#1| (_ BitVec 32))

(declare-const |nondet$symex::nondet151| (_ BitVec 32))

(declare-const |c:jain_2-1.c@730@F@main@y?1!0&0#3| (_ BitVec 32))

(declare-const |c:jain_2-1.c@634@F@__VERIFIER_assert@cond?2!0&0#1| (_ BitVec 32))

(declare-const |goto_symex::guard?0!0&0#2| (_ BitVec 1))

(declare-const |c:@F@main::$tmp::return_value$___VERIFIER_nondet_uint$1?3!0&0#1| (_ BitVec 32))

(declare-const |nondet$symex::nondet152| (_ BitVec 32))

(declare-const |c:jain_2-1.c@730@F@main@x?1!0&0#4| (_ BitVec 32))

(declare-const |c:@F@main::$tmp::return_value$___VERIFIER_nondet_uint$2?3!0&0#1| (_ BitVec 32))

(declare-const |nondet$symex::nondet153| (_ BitVec 32))

(declare-const |c:jain_2-1.c@730@F@main@y?1!0&0#4| (_ BitVec 32))

(declare-const |c:jain_2-1.c@634@F@__VERIFIER_assert@cond?3!0&0#1| (_ BitVec 32))

(declare-const |goto_symex::guard?0!0&0#3| (_ BitVec 1))

(declare-const |c:@F@main::$tmp::return_value$___VERIFIER_nondet_uint$1?4!0&0#1| (_ BitVec 32))

(declare-const |nondet$symex::nondet154| (_ BitVec 32))

(declare-const |c:jain_2-1.c@730@F@main@x?1!0&0#5| (_ BitVec 32))

(declare-const |c:@F@main::$tmp::return_value$___VERIFIER_nondet_uint$2?4!0&0#1| (_ BitVec 32))

(declare-const |nondet$symex::nondet155| (_ BitVec 32))

(declare-const |c:jain_2-1.c@730@F@main@y?1!0&0#5| (_ BitVec 32))

(declare-const |c:jain_2-1.c@634@F@__VERIFIER_assert@cond?4!0&0#1| (_ BitVec 32))

(declare-const |goto_symex::guard?0!0&0#4| (_ BitVec 1))

(declare-const |c:@F@main::$tmp::return_value$___VERIFIER_nondet_uint$1?5!0&0#1| (_ BitVec 32))

(declare-const |nondet$symex::nondet156| (_ BitVec 32))

(declare-const |c:jain_2-1.c@730@F@main@x?1!0&0#6| (_ BitVec 32))

(declare-const |c:@F@main::$tmp::return_value$___VERIFIER_nondet_uint$2?5!0&0#1| (_ BitVec 32))

(declare-const |nondet$symex::nondet157| (_ BitVec 32))

(declare-const |c:jain_2-1.c@730@F@main@y?1!0&0#6| (_ BitVec 32))

(declare-const |c:jain_2-1.c@634@F@__VERIFIER_assert@cond?5!0&0#1| (_ BitVec 32))

(declare-const |goto_symex::guard?0!0&0#5| (_ BitVec 1))

(declare-const |c:@F@main::$tmp::return_value$___VERIFIER_nondet_uint$1?6!0&0#1| (_ BitVec 32))

(declare-const |nondet$symex::nondet158| (_ BitVec 32))

(declare-const |c:jain_2-1.c@730@F@main@x?1!0&0#7| (_ BitVec 32))

(declare-const |c:@F@main::$tmp::return_value$___VERIFIER_nondet_uint$2?6!0&0#1| (_ BitVec 32))

(declare-const |nondet$symex::nondet159| (_ BitVec 32))

(declare-const |c:jain_2-1.c@730@F@main@y?1!0&0#7| (_ BitVec 32))

(declare-const |c:jain_2-1.c@634@F@__VERIFIER_assert@cond?6!0&0#1| (_ BitVec 32))

(declare-const |goto_symex::guard?0!0&0#6| (_ BitVec 1))

(declare-const |c:@F@main::$tmp::return_value$___VERIFIER_nondet_uint$1?7!0&0#1| (_ BitVec 32))

(declare-const |nondet$symex::nondet160| (_ BitVec 32))

(declare-const |c:jain_2-1.c@730@F@main@x?1!0&0#8| (_ BitVec 32))

(declare-const |c:@F@main::$tmp::return_value$___VERIFIER_nondet_uint$2?7!0&0#1| (_ BitVec 32))

(declare-const |nondet$symex::nondet161| (_ BitVec 32))

(declare-const |c:jain_2-1.c@730@F@main@y?1!0&0#8| (_ BitVec 32))

(declare-const |c:jain_2-1.c@634@F@__VERIFIER_assert@cond?7!0&0#1| (_ BitVec 32))

(declare-const |goto_symex::guard?0!0&0#7| (_ BitVec 1))

(declare-const |execution_statet::guard_exec?0!0| (_ BitVec 1))

(assert 

 (= __ESBMC_ptr_obj_start_0 #b0000000000000000000000000000000000000000000000000000000000000000))

(assert 

 (= #b0000000000000000000000000000000000000000000000000000000000000000 __ESBMC_ptr_obj_end_0))

(assert 

 (= __ESBMC_ptr_obj_start_1 #b0000000000000000000000000000000000000000000000000000000000000001))

(assert 

 (= #b1111111111111111111111111111111111111111111111111111111111111111 __ESBMC_ptr_obj_end_1))

(assert 

 (= __ESBMC_ptr_obj_end_0 |smt_conv::__ESBMC_ptr_addr_range_0..end0|))

(assert 

 (= __ESBMC_ptr_obj_start_0 |smt_conv::__ESBMC_ptr_addr_range_0..start0|))

(assert 

 (= __ESBMC_ptr_obj_end_1 |smt_conv::__ESBMC_ptr_addr_range_1..end0|))

(assert 

 (= __ESBMC_ptr_obj_start_1 |smt_conv::__ESBMC_ptr_addr_range_1..start0|))

(assert 

 (= |smt_conv::smt_conv::collate_array_vals::3..end0| |smt_conv::smt_conv::collate_array_vals::4..end0|))

(assert 

 (= |smt_conv::smt_conv::collate_array_vals::3..start0| |smt_conv::smt_conv::collate_array_vals::4..start0|))

(assert 

 (= __ESBMC_ptr_obj_end_0 |smt_conv::smt_conv::collate_array_vals::7..end0|))

(assert 

 (= __ESBMC_ptr_obj_start_0 |smt_conv::smt_conv::collate_array_vals::7..start0|))

(assert 

 (= |c:@F@main::$tmp::return_value$___VERIFIER_nondet_uint$1?1!0&0#1| |nondet$symex::nondet148|))

(assert 

 (= |c:jain_2-1.c@730@F@main@x?1!0&0#2| 

  (bvadd #b00000000000000000000000000000001 

   (bvmul |c:@F@main::$tmp::return_value$___VERIFIER_nondet_uint$1?1!0&0#1| #b00000000000000000000000000000010))))

(assert 

 (= |c:@F@main::$tmp::return_value$___VERIFIER_nondet_uint$2?1!0&0#1| |nondet$symex::nondet149|))

(assert 

 (= |c:jain_2-1.c@730@F@main@y?1!0&0#2| 

  (bvadd #b00000000000000000000000000000001 

   (bvmul #b00000000000000000000000000000010 |c:@F@main::$tmp::return_value$___VERIFIER_nondet_uint$2?1!0&0#1|))))

(assert 

 (= |c:jain_2-1.c@634@F@__VERIFIER_assert@cond?1!0&0#1| 

  (ite 

   (= #b00000000000000000000000000000001 

    (bvadd |c:jain_2-1.c@730@F@main@x?1!0&0#2| |c:jain_2-1.c@730@F@main@y?1!0&0#2|)) #b00000000000000000000000000000000 #b00000000000000000000000000000001)))

(assert 

 (= |goto_symex::guard?0!0&0#1| 

  (ite 

   (= #b00000000000000000000000000000000 |c:jain_2-1.c@634@F@__VERIFIER_assert@cond?1!0&0#1|) #b1 #b0)))

(assert 

 (= |c:@F@main::$tmp::return_value$___VERIFIER_nondet_uint$1?2!0&0#1| |nondet$symex::nondet150|))

(assert 

 (= |c:jain_2-1.c@730@F@main@x?1!0&0#3| 

  (bvadd |c:jain_2-1.c@730@F@main@x?1!0&0#2| 

   (bvmul #b00000000000000000000000000000010 |c:@F@main::$tmp::return_value$___VERIFIER_nondet_uint$1?2!0&0#1|))))

(assert 

 (= |c:@F@main::$tmp::return_value$___VERIFIER_nondet_uint$2?2!0&0#1| |nondet$symex::nondet151|))

(assert 

 (= |c:jain_2-1.c@730@F@main@y?1!0&0#3| 

  (bvadd |c:jain_2-1.c@730@F@main@y?1!0&0#2| 

   (bvmul #b00000000000000000000000000000010 |c:@F@main::$tmp::return_value$___VERIFIER_nondet_uint$2?2!0&0#1|))))

(assert 

 (= |c:jain_2-1.c@634@F@__VERIFIER_assert@cond?2!0&0#1| 

  (ite 

   (= #b00000000000000000000000000000001 

    (bvadd |c:jain_2-1.c@730@F@main@x?1!0&0#3| |c:jain_2-1.c@730@F@main@y?1!0&0#3|)) #b00000000000000000000000000000000 #b00000000000000000000000000000001)))

(assert 

 (= |goto_symex::guard?0!0&0#2| 

  (ite 

   (= #b00000000000000000000000000000000 |c:jain_2-1.c@634@F@__VERIFIER_assert@cond?2!0&0#1|) #b1 #b0)))

(assert 

 (= |c:@F@main::$tmp::return_value$___VERIFIER_nondet_uint$1?3!0&0#1| |nondet$symex::nondet152|))

(assert 

 (= |c:jain_2-1.c@730@F@main@x?1!0&0#4| 

  (bvadd |c:jain_2-1.c@730@F@main@x?1!0&0#3| 

   (bvmul #b00000000000000000000000000000010 |c:@F@main::$tmp::return_value$___VERIFIER_nondet_uint$1?3!0&0#1|))))

(assert 

 (= |c:@F@main::$tmp::return_value$___VERIFIER_nondet_uint$2?3!0&0#1| |nondet$symex::nondet153|))

(assert 

 (= |c:jain_2-1.c@730@F@main@y?1!0&0#4| 

  (bvadd |c:jain_2-1.c@730@F@main@y?1!0&0#3| 

   (bvmul #b00000000000000000000000000000010 |c:@F@main::$tmp::return_value$___VERIFIER_nondet_uint$2?3!0&0#1|))))

(assert 

 (= |c:jain_2-1.c@634@F@__VERIFIER_assert@cond?3!0&0#1| 

  (ite 

   (= #b00000000000000000000000000000001 

    (bvadd |c:jain_2-1.c@730@F@main@x?1!0&0#4| |c:jain_2-1.c@730@F@main@y?1!0&0#4|)) #b00000000000000000000000000000000 #b00000000000000000000000000000001)))

(assert 

 (= |goto_symex::guard?0!0&0#3| 

  (ite 

   (= #b00000000000000000000000000000000 |c:jain_2-1.c@634@F@__VERIFIER_assert@cond?3!0&0#1|) #b1 #b0)))

(assert 

 (= |c:@F@main::$tmp::return_value$___VERIFIER_nondet_uint$1?4!0&0#1| |nondet$symex::nondet154|))

(assert 

 (= |c:jain_2-1.c@730@F@main@x?1!0&0#5| 

  (bvadd |c:jain_2-1.c@730@F@main@x?1!0&0#4| 

   (bvmul #b00000000000000000000000000000010 |c:@F@main::$tmp::return_value$___VERIFIER_nondet_uint$1?4!0&0#1|))))

(assert 

 (= |c:@F@main::$tmp::return_value$___VERIFIER_nondet_uint$2?4!0&0#1| |nondet$symex::nondet155|))

(assert 

 (= |c:jain_2-1.c@730@F@main@y?1!0&0#5| 

  (bvadd |c:jain_2-1.c@730@F@main@y?1!0&0#4| 

   (bvmul #b00000000000000000000000000000010 |c:@F@main::$tmp::return_value$___VERIFIER_nondet_uint$2?4!0&0#1|))))

(assert 

 (= |c:jain_2-1.c@634@F@__VERIFIER_assert@cond?4!0&0#1| 

  (ite 

   (= #b00000000000000000000000000000001 

    (bvadd |c:jain_2-1.c@730@F@main@x?1!0&0#5| |c:jain_2-1.c@730@F@main@y?1!0&0#5|)) #b00000000000000000000000000000000 #b00000000000000000000000000000001)))

(assert 

 (= |goto_symex::guard?0!0&0#4| 

  (ite 

   (= #b00000000000000000000000000000000 |c:jain_2-1.c@634@F@__VERIFIER_assert@cond?4!0&0#1|) #b1 #b0)))

(assert 

 (= |c:@F@main::$tmp::return_value$___VERIFIER_nondet_uint$1?5!0&0#1| |nondet$symex::nondet156|))

(assert 

 (= |c:jain_2-1.c@730@F@main@x?1!0&0#6| 

  (bvadd |c:jain_2-1.c@730@F@main@x?1!0&0#5| 

   (bvmul #b00000000000000000000000000000010 |c:@F@main::$tmp::return_value$___VERIFIER_nondet_uint$1?5!0&0#1|))))

(assert 

 (= |c:@F@main::$tmp::return_value$___VERIFIER_nondet_uint$2?5!0&0#1| |nondet$symex::nondet157|))

(assert 

 (= |c:jain_2-1.c@730@F@main@y?1!0&0#6| 

  (bvadd |c:jain_2-1.c@730@F@main@y?1!0&0#5| 

   (bvmul #b00000000000000000000000000000010 |c:@F@main::$tmp::return_value$___VERIFIER_nondet_uint$2?5!0&0#1|))))

(assert 

 (= |c:jain_2-1.c@634@F@__VERIFIER_assert@cond?5!0&0#1| 

  (ite 

   (= #b00000000000000000000000000000001 

    (bvadd |c:jain_2-1.c@730@F@main@x?1!0&0#6| |c:jain_2-1.c@730@F@main@y?1!0&0#6|)) #b00000000000000000000000000000000 #b00000000000000000000000000000001)))

(assert 

 (= |goto_symex::guard?0!0&0#5| 

  (ite 

   (= #b00000000000000000000000000000000 |c:jain_2-1.c@634@F@__VERIFIER_assert@cond?5!0&0#1|) #b1 #b0)))

(assert 

 (= |c:@F@main::$tmp::return_value$___VERIFIER_nondet_uint$1?6!0&0#1| |nondet$symex::nondet158|))

(assert 

 (= |c:jain_2-1.c@730@F@main@x?1!0&0#7| 

  (bvadd |c:jain_2-1.c@730@F@main@x?1!0&0#6| 

   (bvmul #b00000000000000000000000000000010 |c:@F@main::$tmp::return_value$___VERIFIER_nondet_uint$1?6!0&0#1|))))

(assert 

 (= |c:@F@main::$tmp::return_value$___VERIFIER_nondet_uint$2?6!0&0#1| |nondet$symex::nondet159|))

(assert 

 (= |c:jain_2-1.c@730@F@main@y?1!0&0#7| 

  (bvadd |c:jain_2-1.c@730@F@main@y?1!0&0#6| 

   (bvmul #b00000000000000000000000000000010 |c:@F@main::$tmp::return_value$___VERIFIER_nondet_uint$2?6!0&0#1|))))

(assert 

 (= |c:jain_2-1.c@634@F@__VERIFIER_assert@cond?6!0&0#1| 

  (ite 

   (= #b00000000000000000000000000000001 

    (bvadd |c:jain_2-1.c@730@F@main@x?1!0&0#7| |c:jain_2-1.c@730@F@main@y?1!0&0#7|)) #b00000000000000000000000000000000 #b00000000000000000000000000000001)))

(assert 

 (= |goto_symex::guard?0!0&0#6| 

  (ite 

   (= #b00000000000000000000000000000000 |c:jain_2-1.c@634@F@__VERIFIER_assert@cond?6!0&0#1|) #b1 #b0)))

(assert 

 (= |c:@F@main::$tmp::return_value$___VERIFIER_nondet_uint$1?7!0&0#1| |nondet$symex::nondet160|))

(assert 

 (= |c:jain_2-1.c@730@F@main@x?1!0&0#8| 

  (bvadd |c:jain_2-1.c@730@F@main@x?1!0&0#7| 

   (bvmul #b00000000000000000000000000000010 |c:@F@main::$tmp::return_value$___VERIFIER_nondet_uint$1?7!0&0#1|))))

(assert 

 (= |c:@F@main::$tmp::return_value$___VERIFIER_nondet_uint$2?7!0&0#1| |nondet$symex::nondet161|))

(assert 

 (= |c:jain_2-1.c@730@F@main@y?1!0&0#8| 

  (bvadd |c:jain_2-1.c@730@F@main@y?1!0&0#7| 

   (bvmul #b00000000000000000000000000000010 |c:@F@main::$tmp::return_value$___VERIFIER_nondet_uint$2?7!0&0#1|))))

(assert 

 (= |c:jain_2-1.c@634@F@__VERIFIER_assert@cond?7!0&0#1| 

  (ite 

   (= #b00000000000000000000000000000001 

    (bvadd |c:jain_2-1.c@730@F@main@x?1!0&0#8| |c:jain_2-1.c@730@F@main@y?1!0&0#8|)) #b00000000000000000000000000000000 #b00000000000000000000000000000001)))

(assert 

 (= |goto_symex::guard?0!0&0#7| 

  (ite 

   (= #b00000000000000000000000000000000 |c:jain_2-1.c@634@F@__VERIFIER_assert@cond?7!0&0#1|) #b1 #b0)))

(assert (= |execution_statet::guard_exec?0!0| #b1))

(assert (= 

 (bvnot |goto_symex::guard?0!0&0#7|) #b1))

(assert (= 

 (bvnot |goto_symex::guard?0!0&0#6|) #b1))

(assert (= 

 (bvnot |goto_symex::guard?0!0&0#5|) #b1))

(assert (= 

 (bvnot |goto_symex::guard?0!0&0#4|) #b1))

(assert (= 

 (bvnot |goto_symex::guard?0!0&0#3|) #b1))

(assert (= 

 (bvnot |goto_symex::guard?0!0&0#2|) #b1))

(assert (= 

 (bvnot |goto_symex::guard?0!0&0#1|) #b1))

(check-sat)

(exit)
